5 5
2 95 4 51 0 98 1 69 3 75
2 71 0 72 4 81 3 50 1 61
1 41 2 51 0 78 4 24 3 30
2 52 4 50 1 57 3 62 0 79
2 53 0 68 1 77 3 69 4 31
-1
0 1 3 5
0 3 5
0 1 2 3 5
0 2 5
0 2 3 4 5
-2
106 303 575
252 362
54 99 206 313
149 307
147 239 355 315

556 12
6 21 2 12 19
10 22 17 3 9
5 20 0 15 11
8 23 18 4 14
7 1 16 13 24
